c random formula
p cnf 10 30
-5 -2 0
6 -2 0
7 3 0
-5 -2 0
10 -3 0
4 -10 0
9 -8 0
8 1 0
7 10 0
-10 4 0
6 -2 0
-8 -2 0
1 4 0
-1 3 0
-5 -4 0
5 -4 0
3 8 0
5 6 0
-2 6 0
-2 3 0
2 -3 0
8 5 0
-8 -10 0
-5 3 0
-5 -9 0
3 1 0
1 9 0
-3 -5 0
-6 5 0
1 10 0
